120
100
24
65
40
46
20
69
38
40
68
64
64
63
50
59
68
37
48
50
75
55
59
50
28
79
56
50
23
54
34
33
77
64
79
32
20
39
26
35
55
37
80
31
61
68
50
62
65
21
77
56
77
24
68
61
66
46
52
54
73
68
69
55
63
67
38
51
26
68
57
39
54
42
77
55
76
44
32
21
46
48
65
22
46
76
37
20
32
46
28
73
65
80
35
52
20
36
62
57
60
40
26
64
37
41
79
32
39
57
22
69
31
51
47
57
38
56
73
53
73
20
